&input
	fildyn = 'silicon.10.316.dyn',
	zasr = 'simple',
	flfrc = 'silicon.444.10.316.fc',
/
