&input
	fildyn = 'silicon.10.36.dyn',
	zasr = 'simple',
	flfrc = 'silicon.444.10.36.fc',
/
