&input
	fildyn = 'silicon.10.362.dyn',
	zasr = 'simple',
	flfrc = 'silicon.444.10.362.fc',
/
