&input
	fildyn = 'silicon.10.368.dyn',
	zasr = 'simple',
	flfrc = 'silicon.444.10.368.fc',
/
