&input
	fildyn = 'silicon.10.396.dyn',
	zasr = 'simple',
	flfrc = 'silicon.444.10.396.fc',
/
