&input
	fildyn = 'silicon.10.340.dyn',
	zasr = 'simple',
	flfrc = 'silicon.444.10.340.fc',
/
