&input
	fildyn = 'silicon.10.318.dyn',
	zasr = 'simple',
	flfrc = 'silicon.444.10.318.fc',
/
