&input
	fildyn = 'silicon.10.298.dyn',
	zasr = 'simple',
	flfrc = 'silicon.444.10.298.fc',
/
