&input
	fildyn = 'silicon.10.45.dyn',
	zasr = 'simple',
	flfrc = 'silicon.444.10.45.fc',
/
