&input
	fildyn = 'silicon.10.336.dyn',
	zasr = 'simple',
	flfrc = 'silicon.444.10.336.fc',
/
