&input
	fildyn = 'silicon.10.346.dyn',
	zasr = 'simple',
	flfrc = 'silicon.444.10.346.fc',
/
