&input
	fildyn = 'silicon.10.308.dyn',
	zasr = 'simple',
	flfrc = 'silicon.444.10.308.fc',
/
