&input
	fildyn = 'silicon.10.356.dyn',
	zasr = 'simple',
	flfrc = 'silicon.444.10.356.fc',
/
