&input
	fildyn = 'silicon.10.292.dyn',
	zasr = 'simple',
	flfrc = 'silicon.444.10.292.fc',
/
