&input
	fildyn = 'silicon.10.376.dyn',
	zasr = 'simple',
	flfrc = 'silicon.444.10.376.fc',
/
