&input
	fildyn = 'silicon.10.402.dyn',
	zasr = 'simple',
	flfrc = 'silicon.444.10.402.fc',
/
