&input
	fildyn = 'silicon.10.323.dyn',
	zasr = 'simple',
	flfrc = 'silicon.444.10.323.fc',
/
