&input
	fildyn = 'silicon.10.355.dyn',
	zasr = 'simple',
	flfrc = 'silicon.444.10.355.fc',
/
