&input
	fildyn = 'silicon.10.405.dyn',
	zasr = 'simple',
	flfrc = 'silicon.444.10.405.fc',
/
