&control
	calculation = 'scf',
	prefix = 'silicon.10.316',
/
&system
	ibrav = 2,
	celldm(1) = 10.316,
	nat = 2,
	ntyp = 1,
	ecutwfc = 30,
	ecutrho = 240,
/
&electrons
	mixing_beta = 0.7,
	conv_thr = 1.0d-8,
/
ATOMIC_SPECIES
 Si 28.086 si_pbe_v1.uspp.F.UPF.txt
ATOMIC_POSITIONS
 Si 0.00 0.00 0.00
 Si 0.25 0.25 0.25
K_POINTS automatic
 4 4 4	1 1 1
