&input
	fildyn = 'silicon.10.358.dyn',
	zasr = 'simple',
	flfrc = 'silicon.444.10.358.fc',
/
