&input
	fildyn = 'silicon.10.39.dyn',
	zasr = 'simple',
	flfrc = 'silicon.444.10.39.fc',
/
