&input
	fildyn = 'silicon.10.34.dyn',
	zasr = 'simple',
	flfrc = 'silicon.444.10.34.fc',
/
