&input
	fildyn = 'silicon.10.328.dyn',
	zasr = 'simple',
	flfrc = 'silicon.444.10.328.fc',
/
