&input
	fildyn = 'silicon.10.47.dyn',
	zasr = 'simple',
	flfrc = 'silicon.444.10.47.fc',
/
