&input
	fildyn = 'silicon.10.345.dyn',
	zasr = 'simple',
	flfrc = 'silicon.444.10.345.fc',
/
