&input
	fildyn = 'silicon.10.370.dyn',
	zasr = 'simple',
	flfrc = 'silicon.444.10.370.fc',
/
