&input
	fildyn = 'silicon.10.337.dyn',
	zasr = 'simple',
	flfrc = 'silicon.444.10.337.fc',
/
