&input
	fildyn = 'silicon.10.31.dyn',
	zasr = 'simple',
	flfrc = 'silicon.444.10.31.fc',
/
