&input
	fildyn = 'silicon.10.344.dyn',
	zasr = 'simple',
	flfrc = 'silicon.444.10.344.fc',
/
