&input
	fildyn = 'silicon.10.393.dyn',
	zasr = 'simple',
	flfrc = 'silicon.444.10.393.fc',
/
