&input
	fildyn = 'silicon.10.391.dyn',
	zasr = 'simple',
	flfrc = 'silicon.444.10.391.fc',
/
