&input
	fildyn = 'silicon.10.360.dyn',
	zasr = 'simple',
	flfrc = 'silicon.444.10.360.fc',
/
