&input
	fildyn = 'silicon.10.366.dyn',
	zasr = 'simple',
	flfrc = 'silicon.444.10.366.fc',
/
