&input
	fildyn = 'silicon.10.20.dyn',
	zasr = 'simple',
	flfrc = 'silicon.444.10.20.fc',
/
