&input
	fildyn = 'silicon.10.3402.dyn',
	zasr = 'simple',
	flfrc = 'silicon.444.10.3402.fc',
/
