&input
	fildyn = 'silicon.10.341.dyn',
	zasr = 'simple',
	flfrc = 'silicon.444.10.341.fc',
/
