Silicon Phonon Calculation for Lat_Param=10.324
&inputph
	prefix = 'silicon.10.324',
	ldisp = .true.
	nq1 = 4,
	nq2 = 4,
	nq3 = 4,
	fildyn = 'silicon.10.324.dyn',
/
