&input
	fildyn = 'silicon.10.324.dyn',
	zasr = 'simple',
	flfrc = 'silicon.444.10.324.fc',
/
