&input
	fildyn = 'silicon.10.310.dyn',
	zasr = 'simple',
	flfrc = 'silicon.444.10.310.fc',
/
