&input
	fildyn = 'silicon.10.35.dyn',
	zasr = 'simple',
	flfrc = 'silicon.444.10.35.fc',
/
