&input
	fildyn = 'silicon.10.290.dyn',
	zasr = 'simple',
	flfrc = 'silicon.444.10.290.fc',
/
