&input
	fildyn = 'silicon.10.398.dyn',
	zasr = 'simple',
	flfrc = 'silicon.444.10.398.fc',
/
