&input
	fildyn = 'silicon.10.342.dyn',
	zasr = 'simple',
	flfrc = 'silicon.444.10.342.fc',
/
