&input
	fildyn = 'silicon.10.321.dyn',
	zasr = 'simple',
	flfrc = 'silicon.444.10.321.fc',
/
