&input
	fildyn = 'silicon.10.320.dyn',
	zasr = 'simple',
	flfrc = 'silicon.444.10.320.fc',
/
