&input
	fildyn = 'silicon.10.399.dyn',
	zasr = 'simple',
	flfrc = 'silicon.444.10.399.fc',
/
