&input
	fildyn = 'silicon.10.306.dyn',
	zasr = 'simple',
	flfrc = 'silicon.444.10.306.fc',
/
