&input
	fildyn = 'silicon.10.3404.dyn',
	zasr = 'simple',
	flfrc = 'silicon.444.10.3404.fc',
/
