&input
	fildyn = 'silicon.10.296.dyn',
	zasr = 'simple',
	flfrc = 'silicon.444.10.296.fc',
/
