&input
	fildyn = 'silicon.10.288.dyn',
	zasr = 'simple',
	flfrc = 'silicon.444.10.288.fc',
/
