&input
	fildyn = 'silicon.10.44.dyn',
	zasr = 'simple',
	flfrc = 'silicon.444.10.44.fc',
/
