&input
	fildyn = 'silicon.10.46.dyn',
	zasr = 'simple',
	flfrc = 'silicon.444.10.46.fc',
/
