&input
	fildyn = 'silicon.10.395.dyn',
	zasr = 'simple',
	flfrc = 'silicon.444.10.395.fc',
/
