&input
	fildyn = 'silicon.10.21.dyn',
	zasr = 'simple',
	flfrc = 'silicon.444.10.21.fc',
/
