&input
	fildyn = 'silicon.10.284.dyn',
	zasr = 'simple',
	flfrc = 'silicon.444.10.284.fc',
/
