&input
	fildyn = 'silicon.10.401.dyn',
	zasr = 'simple',
	flfrc = 'silicon.444.10.401.fc',
/
