&input
	fildyn = 'silicon.10.3401.dyn',
	zasr = 'simple',
	flfrc = 'silicon.444.10.3401.fc',
/
