&input
	fildyn = 'silicon.10.378.dyn',
	zasr = 'simple',
	flfrc = 'silicon.444.10.378.fc',
/
