&input
	fildyn = 'silicon.10.3406.dyn',
	zasr = 'simple',
	flfrc = 'silicon.444.10.3406.fc',
/
