&input
	fildyn = 'silicon.10.407.dyn',
	zasr = 'simple',
	flfrc = 'silicon.444.10.407.fc',
/
