&input
	fildyn = 'silicon.10.312.dyn',
	zasr = 'simple',
	flfrc = 'silicon.444.10.312.fc',
/
