&input
	fildyn = 'silicon.10.24.dyn',
	zasr = 'simple',
	flfrc = 'silicon.444.10.24.fc',
/
