&input
	fildyn = 'silicon.10.28.dyn',
	zasr = 'simple',
	flfrc = 'silicon.444.10.28.fc',
/
