&input
	fildyn = 'silicon.10.338.dyn',
	zasr = 'simple',
	flfrc = 'silicon.444.10.338.fc',
/
