&input
	fildyn = 'silicon.10.392.dyn',
	zasr = 'simple',
	flfrc = 'silicon.444.10.392.fc',
/
