&input
	fildyn = 'silicon.10.409.dyn',
	zasr = 'simple',
	flfrc = 'silicon.444.10.409.fc',
/
