&input
	fildyn = 'silicon.10.334.dyn',
	zasr = 'simple',
	flfrc = 'silicon.444.10.334.fc',
/
