&input
	fildyn = 'silicon.10.390.dyn',
	zasr = 'simple',
	flfrc = 'silicon.444.10.390.fc',
/
