&input
	fildyn = 'silicon.10.339.dyn',
	zasr = 'simple',
	flfrc = 'silicon.444.10.339.fc',
/
