&input
	fildyn = 'silicon.10.280.dyn',
	zasr = 'simple',
	flfrc = 'silicon.444.10.280.fc',
/
