&input
	fildyn = 'silicon.10.27.dyn',
	zasr = 'simple',
	flfrc = 'silicon.444.10.27.fc',
/
