&input
	fildyn = 'silicon.10.302.dyn',
	zasr = 'simple',
	flfrc = 'silicon.444.10.302.fc',
/
