&input
	fildyn = 'silicon.10.37.dyn',
	zasr = 'simple',
	flfrc = 'silicon.444.10.37.fc',
/
