&input
	fildyn = 'silicon.10.347.dyn',
	zasr = 'simple',
	flfrc = 'silicon.444.10.347.fc',
/
