&input
	fildyn = 'silicon.10.50.dyn',
	zasr = 'simple',
	flfrc = 'silicon.444.10.50.fc',
/
