&input
	fildyn = 'silicon.10.372.dyn',
	zasr = 'simple',
	flfrc = 'silicon.444.10.372.fc',
/
