&input
	fildyn = 'silicon.10.350.dyn',
	zasr = 'simple',
	flfrc = 'silicon.444.10.350.fc',
/
