&input
	fildyn = 'silicon.10.29.dyn',
	zasr = 'simple',
	flfrc = 'silicon.444.10.29.fc',
/
