&input
	fildyn = 'silicon.10.30.dyn',
	zasr = 'simple',
	flfrc = 'silicon.444.10.30.fc',
/
