&input
	fildyn = 'silicon.10.403.dyn',
	zasr = 'simple',
	flfrc = 'silicon.444.10.403.fc',
/
