&input
	fildyn = 'silicon.10.25.dyn',
	zasr = 'simple',
	flfrc = 'silicon.444.10.25.fc',
/
