&input
	fildyn = 'silicon.10.332.dyn',
	zasr = 'simple',
	flfrc = 'silicon.444.10.332.fc',
/
