&input
	fildyn = 'silicon.10.326.dyn',
	zasr = 'simple',
	flfrc = 'silicon.444.10.326.fc',
/
