&input
	fildyn = 'silicon.10.333.dyn',
	zasr = 'simple',
	flfrc = 'silicon.444.10.333.fc',
/
