&input
	fildyn = 'silicon.10.3403.dyn',
	zasr = 'simple',
	flfrc = 'silicon.444.10.3403.fc',
/
