&input
	fildyn = 'silicon.10.404.dyn',
	zasr = 'simple',
	flfrc = 'silicon.444.10.404.fc',
/
