Silicon Phonon Calculation for Lat_Param=10.3407
&inputph
	prefix = 'silicon.10.3407',
	ldisp = .true.
	nq1 = 4,
	nq2 = 4,
	nq3 = 4,
	fildyn = 'silicon.10.3407.dyn',
/
