&input
	fildyn = 'silicon.10.23.dyn',
	zasr = 'simple',
	flfrc = 'silicon.444.10.23.fc',
/
