&input
	fildyn = 'silicon.10.33.dyn',
	zasr = 'simple',
	flfrc = 'silicon.444.10.33.fc',
/
