&input
	fildyn = 'silicon.10.330.dyn',
	zasr = 'simple',
	flfrc = 'silicon.444.10.330.fc',
/
