&input
	fildyn = 'silicon.10.282.dyn',
	zasr = 'simple',
	flfrc = 'silicon.444.10.282.fc',
/
