&input
	fildyn = 'silicon.10.357.dyn',
	zasr = 'simple',
	flfrc = 'silicon.444.10.357.fc',
/
