&input
	fildyn = 'silicon.10.352.dyn',
	zasr = 'simple',
	flfrc = 'silicon.444.10.352.fc',
/
