&input
	fildyn = 'silicon.10.3410.dyn',
	zasr = 'simple',
	flfrc = 'silicon.444.10.3410.fc',
/
