&input
	fildyn = 'silicon.10.3405.dyn',
	zasr = 'simple',
	flfrc = 'silicon.444.10.3405.fc',
/
