&input
	fildyn = 'silicon.10.322.dyn',
	zasr = 'simple',
	flfrc = 'silicon.444.10.322.fc',
/
