&input
	fildyn = 'silicon.10.40.dyn',
	zasr = 'simple',
	flfrc = 'silicon.444.10.40.fc',
/
