&input
	fildyn = 'silicon.10.300.dyn',
	zasr = 'simple',
	flfrc = 'silicon.444.10.300.fc',
/
