&input
	fildyn = 'silicon.10.364.dyn',
	zasr = 'simple',
	flfrc = 'silicon.444.10.364.fc',
/
