&input
	fildyn = 'silicon.10.32.dyn',
	zasr = 'simple',
	flfrc = 'silicon.444.10.32.fc',
/
