&input
	fildyn = 'silicon.10.43.dyn',
	zasr = 'simple',
	flfrc = 'silicon.444.10.43.fc',
/
