&input
	fildyn = 'silicon.10.349.dyn',
	zasr = 'simple',
	flfrc = 'silicon.444.10.349.fc',
/
