&input
	fildyn = 'silicon.10.380.dyn',
	zasr = 'simple',
	flfrc = 'silicon.444.10.380.fc',
/
