&input
	fildyn = 'silicon.10.42.dyn',
	zasr = 'simple',
	flfrc = 'silicon.444.10.42.fc',
/
