&input
	fildyn = 'silicon.10.286.dyn',
	zasr = 'simple',
	flfrc = 'silicon.444.10.286.fc',
/
