&input
	fildyn = 'silicon.10.304.dyn',
	zasr = 'simple',
	flfrc = 'silicon.444.10.304.fc',
/
