&input
	fildyn = 'silicon.10.329.dyn',
	zasr = 'simple',
	flfrc = 'silicon.444.10.329.fc',
/
