&input
	fildyn = 'silicon.10.374.dyn',
	zasr = 'simple',
	flfrc = 'silicon.444.10.374.fc',
/
