&input
	fildyn = 'silicon.10.343.dyn',
	zasr = 'simple',
	flfrc = 'silicon.444.10.343.fc',
/
