&input
	fildyn = 'silicon.10.394.dyn',
	zasr = 'simple',
	flfrc = 'silicon.444.10.394.fc',
/
