&input
	fildyn = 'silicon.10.314.dyn',
	zasr = 'simple',
	flfrc = 'silicon.444.10.314.fc',
/
