&input
	fildyn = 'silicon.10.48.dyn',
	zasr = 'simple',
	flfrc = 'silicon.444.10.48.fc',
/
