&input
	fildyn = 'silicon.10.3400.dyn',
	zasr = 'simple',
	flfrc = 'silicon.444.10.3400.fc',
/
