&input
	fildyn = 'silicon.10.348.dyn',
	zasr = 'simple',
	flfrc = 'silicon.444.10.348.fc',
/
