&input
	fildyn = 'silicon.10.351.dyn',
	zasr = 'simple',
	flfrc = 'silicon.444.10.351.fc',
/
