&input
	fildyn = 'silicon.10.41.dyn',
	zasr = 'simple',
	flfrc = 'silicon.444.10.41.fc',
/
