Silicon Phonon Calculation for Lat_Param=10.49
&inputph
	prefix = 'silicon.10.49',
	ldisp = .true.
	nq1 = 4,
	nq2 = 4,
	nq3 = 4,
	fildyn = 'silicon.10.49.dyn',
/
