&input
	fildyn = 'silicon.10.49.dyn',
	zasr = 'simple',
	flfrc = 'silicon.444.10.49.fc',
/
