&input
	fildyn = 'silicon.10.353.dyn',
	zasr = 'simple',
	flfrc = 'silicon.444.10.353.fc',
/
