&input
	fildyn = 'silicon.10.294.dyn',
	zasr = 'simple',
	flfrc = 'silicon.444.10.294.fc',
/
